p edges 91 1628
e 1 1
e 1 2
e 1 3
e 1 4
e 1 5
e 1 6
e 1 7
e 1 8
e 1 9
e 1 10
e 1 11
e 1 12
e 1 13
e 1 14
e 1 15
e 1 16
e 1 17
e 1 18
e 1 19
e 1 20
e 1 21
e 1 22
e 1 23
e 1 24
e 1 25
e 1 26
e 1 27
e 1 28
e 1 29
e 1 30
e 2 1
e 2 2
e 2 3
e 2 4
e 2 5
e 2 6
e 2 7
e 2 8
e 2 9
e 2 10
e 2 11
e 2 12
e 2 13
e 2 14
e 2 15
e 2 16
e 2 17
e 2 18
e 2 19
e 2 20
e 2 21
e 2 22
e 2 23
e 2 24
e 2 25
e 2 26
e 2 27
e 2 28
e 2 29
e 2 30
e 2 31
e 3 2
e 3 3
e 3 4
e 3 5
e 3 6
e 3 7
e 3 8
e 3 9
e 3 10
e 3 11
e 3 12
e 3 13
e 3 14
e 3 15
e 3 16
e 3 17
e 3 18
e 3 19
e 3 20
e 3 21
e 3 22
e 3 23
e 3 24
e 3 25
e 3 26
e 3 27
e 3 28
e 3 29
e 3 30
e 3 31
e 3 32
e 3 33
e 3 34
e 3 35
e 3 36
e 4 2
e 4 3
e 4 4
e 4 5
e 4 6
e 4 7
e 4 8
e 4 9
e 4 10
e 4 11
e 4 12
e 4 13
e 4 14
e 4 15
e 4 16
e 4 17
e 4 18
e 4 19
e 4 20
e 4 21
e 4 22
e 4 23
e 4 24
e 4 25
e 4 26
e 4 27
e 4 28
e 4 29
e 4 30
e 4 31
e 5 3
e 5 4
e 5 5
e 5 6
e 5 7
e 5 8
e 5 9
e 5 10
e 5 11
e 5 12
e 5 13
e 5 14
e 5 15
e 5 16
e 5 17
e 5 18
e 5 19
e 5 20
e 5 21
e 5 22
e 5 23
e 5 24
e 5 25
e 5 26
e 5 27
e 5 28
e 5 29
e 5 30
e 5 31
e 5 32
e 5 33
e 5 34
e 5 35
e 5 36
e 5 37
e 5 38
e 5 39
e 5 40
e 6 3
e 6 4
e 6 5
e 6 6
e 6 7
e 6 8
e 6 9
e 6 10
e 6 11
e 6 12
e 6 13
e 6 14
e 6 15
e 6 16
e 6 17
e 6 18
e 6 19
e 6 20
e 6 21
e 6 22
e 6 23
e 6 24
e 6 25
e 6 26
e 6 27
e 6 28
e 6 29
e 6 30
e 7 3
e 7 4
e 7 5
e 7 6
e 7 7
e 7 8
e 7 9
e 7 10
e 7 11
e 7 12
e 7 13
e 7 14
e 7 15
e 7 16
e 7 17
e 7 18
e 7 19
e 7 20
e 7 21
e 7 22
e 7 23
e 7 24
e 7 25
e 7 26
e 7 27
e 7 28
e 7 29
e 7 30
e 7 31
e 7 32
e 7 33
e 8 6
e 8 7
e 8 8
e 8 9
e 8 10
e 8 11
e 8 12
e 8 13
e 8 14
e 8 15
e 8 16
e 8 17
e 8 18
e 8 19
e 8 20
e 8 21
e 8 22
e 8 23
e 8 24
e 8 25
e 8 26
e 8 27
e 8 28
e 8 29
e 8 30
e 8 31
e 8 32
e 8 33
e 8 34
e 8 35
e 8 36
e 8 37
e 8 38
e 8 39
e 8 40
e 8 41
e 8 42
e 8 43
e 8 44
e 8 45
e 8 46
e 8 47
e 8 48
e 8 49
e 8 50
e 8 51
e 8 52
e 8 53
e 8 54
e 9 4
e 9 5
e 9 6
e 9 7
e 9 8
e 9 9
e 9 10
e 9 11
e 9 12
e 9 13
e 9 14
e 9 15
e 9 16
e 9 17
e 9 18
e 9 19
e 9 20
e 9 21
e 9 22
e 9 23
e 9 24
e 9 25
e 9 26
e 9 27
e 9 28
e 9 29
e 10 4
e 10 5
e 10 6
e 10 7
e 10 8
e 10 9
e 10 10
e 10 11
e 10 12
e 10 13
e 10 14
e 10 15
e 10 16
e 10 17
e 10 18
e 10 19
e 10 20
e 10 21
e 10 22
e 10 23
e 10 24
e 10 25
e 10 26
e 10 27
e 10 28
e 10 29
e 10 30
e 10 31
e 10 32
e 11 7
e 11 8
e 11 9
e 11 10
e 11 11
e 11 12
e 11 13
e 11 14
e 11 15
e 11 16
e 11 17
e 11 18
e 11 19
e 11 20
e 11 21
e 11 22
e 11 23
e 11 24
e 11 25
e 11 26
e 11 27
e 11 28
e 11 29
e 11 30
e 11 31
e 11 32
e 11 33
e 11 34
e 11 35
e 11 36
e 11 37
e 11 38
e 11 39
e 11 40
e 11 41
e 11 42
e 11 43
e 11 44
e 11 45
e 11 46
e 11 47
e 11 48
e 12 5
e 12 6
e 12 7
e 12 8
e 12 9
e 12 10
e 12 11
e 12 12
e 12 13
e 12 14
e 12 15
e 12 16
e 12 17
e 12 18
e 12 19
e 12 20
e 12 21
e 12 22
e 12 23
e 12 24
e 12 25
e 12 26
e 12 27
e 12 28
e 12 29
e 12 30
e 12 31
e 12 32
e 12 33
e 12 34
e 12 35
e 13 3
e 13 4
e 13 5
e 13 6
e 13 7
e 13 8
e 13 9
e 13 10
e 13 11
e 13 12
e 13 13
e 13 14
e 13 15
e 13 16
e 13 17
e 13 18
e 13 19
e 13 20
e 13 21
e 13 22
e 13 23
e 13 24
e 13 25
e 13 26
e 13 27
e 13 28
e 14 8
e 14 9
e 14 10
e 14 11
e 14 12
e 14 13
e 14 14
e 14 15
e 14 16
e 14 17
e 14 18
e 14 19
e 14 20
e 14 21
e 14 22
e 14 23
e 14 24
e 14 25
e 14 26
e 14 27
e 14 28
e 14 29
e 14 30
e 14 31
e 14 32
e 14 33
e 14 34
e 14 35
e 14 36
e 14 37
e 14 38
e 14 39
e 14 40
e 14 41
e 15 7
e 15 8
e 15 9
e 15 10
e 15 11
e 15 12
e 15 13
e 15 14
e 15 15
e 15 16
e 15 17
e 15 18
e 15 19
e 15 20
e 15 21
e 15 22
e 15 23
e 15 24
e 15 25
e 15 26
e 15 27
e 15 28
e 15 29
e 15 30
e 15 31
e 15 32
e 15 33
e 15 34
e 15 35
e 15 36
e 15 37
e 15 38
e 16 5
e 16 6
e 16 7
e 16 8
e 16 9
e 16 10
e 16 11
e 16 12
e 16 13
e 16 14
e 16 15
e 16 16
e 16 17
e 16 18
e 16 19
e 16 20
e 16 21
e 16 22
e 16 23
e 16 24
e 16 25
e 16 26
e 16 27
e 16 28
e 16 29
e 16 30
e 16 31
e 16 32
e 16 33
e 16 34
e 17 8
e 17 9
e 17 10
e 17 11
e 17 12
e 17 13
e 17 14
e 17 15
e 17 16
e 17 17
e 17 18
e 17 19
e 17 20
e 17 21
e 17 22
e 17 23
e 17 24
e 17 25
e 17 26
e 17 27
e 17 28
e 17 29
e 17 30
e 17 31
e 17 32
e 17 33
e 17 34
e 17 35
e 17 36
e 17 37
e 17 38
e 17 39
e 17 40
e 17 41
e 17 42
e 17 43
e 18 9
e 18 10
e 18 11
e 18 12
e 18 13
e 18 14
e 18 15
e 18 16
e 18 17
e 18 18
e 18 19
e 18 20
e 18 21
e 18 22
e 18 23
e 18 24
e 18 25
e 18 26
e 18 27
e 18 28
e 18 29
e 18 30
e 18 31
e 18 32
e 19 8
e 19 9
e 19 10
e 19 11
e 19 12
e 19 13
e 19 14
e 19 15
e 19 16
e 19 17
e 19 18
e 19 19
e 19 20
e 19 21
e 19 22
e 19 23
e 19 24
e 19 25
e 19 26
e 19 27
e 19 28
e 19 29
e 19 30
e 19 31
e 19 32
e 19 33
e 19 34
e 19 35
e 19 36
e 19 37
e 19 38
e 19 39
e 19 40
e 19 41
e 20 10
e 20 11
e 20 12
e 20 13
e 20 14
e 20 15
e 20 16
e 20 17
e 20 18
e 20 19
e 20 20
e 20 21
e 20 22
e 20 23
e 20 24
e 20 25
e 20 26
e 20 27
e 20 28
e 20 29
e 20 30
e 21 12
e 21 13
e 21 14
e 21 15
e 21 16
e 21 17
e 21 18
e 21 19
e 21 20
e 21 21
e 21 22
e 21 23
e 21 24
e 21 25
e 21 26
e 21 27
e 21 28
e 21 29
e 22 7
e 22 8
e 22 9
e 22 10
e 22 11
e 22 12
e 22 13
e 22 14
e 22 15
e 22 16
e 22 17
e 22 18
e 22 19
e 22 20
e 22 21
e 22 22
e 22 23
e 22 24
e 22 25
e 22 26
e 22 27
e 23 7
e 23 8
e 23 9
e 23 10
e 23 11
e 23 12
e 23 13
e 23 14
e 23 15
e 23 16
e 23 17
e 23 18
e 23 19
e 23 20
e 23 21
e 23 22
e 23 23
e 23 24
e 23 25
e 23 26
e 23 27
e 23 28
e 23 29
e 23 30
e 23 31
e 23 32
e 23 33
e 23 34
e 23 35
e 23 36
e 23 37
e 23 38
e 24 12
e 24 13
e 24 14
e 24 15
e 24 16
e 24 17
e 24 18
e 24 19
e 24 20
e 24 21
e 24 22
e 24 23
e 24 24
e 24 25
e 24 26
e 24 27
e 24 28
e 24 29
e 24 30
e 24 31
e 24 32
e 25 16
e 25 17
e 25 18
e 25 19
e 25 20
e 25 21
e 25 22
e 25 23
e 25 24
e 25 25
e 25 26
e 25 27
e 25 28
e 25 29
e 25 30
e 25 31
e 25 32
e 25 33
e 25 34
e 25 35
e 25 36
e 25 37
e 25 38
e 25 39
e 25 40
e 25 41
e 25 42
e 25 43
e 25 44
e 25 45
e 25 46
e 25 47
e 25 48
e 26 12
e 26 13
e 26 14
e 26 15
e 26 16
e 26 17
e 26 18
e 26 19
e 26 20
e 26 21
e 26 22
e 26 23
e 26 24
e 26 25
e 26 26
e 26 27
e 26 28
e 26 29
e 26 30
e 26 31
e 26 32
e 26 33
e 26 34
e 26 35
e 26 36
e 26 37
e 26 38
e 26 39
e 26 40
e 26 41
e 26 42
e 26 43
e 26 44
e 27 11
e 27 12
e 27 13
e 27 14
e 27 15
e 27 16
e 27 17
e 27 18
e 27 19
e 27 20
e 27 21
e 27 22
e 27 23
e 27 24
e 27 25
e 27 26
e 27 27
e 27 28
e 27 29
e 27 30
e 27 31
e 27 32
e 27 33
e 27 34
e 27 35
e 27 36
e 28 9
e 28 10
e 28 11
e 28 12
e 28 13
e 28 14
e 28 15
e 28 16
e 28 17
e 28 18
e 28 19
e 28 20
e 28 21
e 28 22
e 28 23
e 28 24
e 28 25
e 28 26
e 28 27
e 28 28
e 28 29
e 28 30
e 28 31
e 28 32
e 28 33
e 28 34
e 28 35
e 28 36
e 28 37
e 28 38
e 28 39
e 28 40
e 28 41
e 28 42
e 28 43
e 29 7
e 29 8
e 29 9
e 29 10
e 29 11
e 29 12
e 29 13
e 29 14
e 29 15
e 29 16
e 29 17
e 29 18
e 29 19
e 29 20
e 29 21
e 29 22
e 29 23
e 29 24
e 29 25
e 29 26
e 29 27
e 29 28
e 29 29
e 29 30
e 29 31
e 29 32
e 29 33
e 29 34
e 29 35
e 29 36
e 29 37
e 30 9
e 30 10
e 30 11
e 30 12
e 30 13
e 30 14
e 30 15
e 30 16
e 30 17
e 30 18
e 30 19
e 30 20
e 30 21
e 30 22
e 30 23
e 30 24
e 30 25
e 30 26
e 30 27
e 30 28
e 30 29
e 30 30
e 30 31
e 30 32
e 31 9
e 31 10
e 31 11
e 31 12
e 31 13
e 31 14
e 31 15
e 31 16
e 31 17
e 31 18
e 31 19
e 31 20
e 31 21
e 31 22
e 31 23
e 31 24
e 31 25
e 31 26
e 31 27
e 31 28
e 31 29
e 31 30
e 31 31
e 31 32
e 31 33
e 31 34
e 31 35
e 32 18
e 32 19
e 32 20
e 32 21
e 32 22
e 32 23
e 32 24
e 32 25
e 32 26
e 32 27
e 32 28
e 32 29
e 32 30
e 32 31
e 32 32
e 32 33
e 32 34
e 32 35
e 32 36
e 32 37
e 32 38
e 32 39
e 32 40
e 32 41
e 32 42
e 33 17
e 33 18
e 33 19
e 33 20
e 33 21
e 33 22
e 33 23
e 33 24
e 33 25
e 33 26
e 33 27
e 33 28
e 33 29
e 33 30
e 33 31
e 33 32
e 33 33
e 34 15
e 34 16
e 34 17
e 34 18
e 34 19
e 34 20
e 34 21
e 34 22
e 34 23
e 34 24
e 34 25
e 34 26
e 34 27
e 34 28
e 34 29
e 34 30
e 34 31
e 34 32
e 34 33
e 34 34
e 34 35
e 34 36
e 34 37
e 34 38
e 35 11
e 35 12
e 35 13
e 35 14
e 35 15
e 35 16
e 35 17
e 35 18
e 35 19
e 35 20
e 35 21
e 35 22
e 35 23
e 36 15
e 36 16
e 36 17
e 36 18
e 36 19
e 36 20
e 36 21
e 36 22
e 36 23
e 36 24
e 36 25
e 36 26
e 36 27
e 36 28
e 36 29
e 36 30
e 36 31
e 36 32
e 36 33
e 36 34
e 36 35
e 36 36
e 36 37
e 36 38
e 37 18
e 37 19
e 37 20
e 37 21
e 37 22
e 37 23
e 37 24
e 37 25
e 37 26
e 37 27
e 37 28
e 37 29
e 37 30
e 37 31
e 37 32
e 37 33
e 37 34
e 37 35
e 37 36
e 37 37
e 37 38
e 37 39
e 38 20
e 38 21
e 38 22
e 38 23
e 38 24
e 38 25
e 38 26
e 38 27
e 38 28
e 38 29
e 38 30
e 38 31
e 38 32
e 38 33
e 38 34
e 38 35
e 38 36
e 38 37
e 38 38
e 38 39
e 38 40
e 38 41
e 38 42
e 38 43
e 39 19
e 39 20
e 39 21
e 39 22
e 39 23
e 39 24
e 39 25
e 39 26
e 39 27
e 39 28
e 39 29
e 39 30
e 39 31
e 39 32
e 39 33
e 39 34
e 39 35
e 39 36
e 39 37
e 39 38
e 39 39
e 39 40
e 39 41
e 40 12
e 40 13
e 40 14
e 40 15
e 40 16
e 40 17
e 40 18
e 40 19
e 40 20
e 40 21
e 40 22
e 40 23
e 40 24
e 40 25
e 40 26
e 40 27
e 40 28
e 41 7
e 41 8
e 41 9
e 41 10
e 41 11
e 41 12
e 41 13
e 41 14
e 41 15
e 41 16
e 41 17
e 41 18
e 41 19
e 41 20
e 42 20
e 42 21
e 42 22
e 42 23
e 42 24
e 42 25
e 42 26
e 42 27
e 42 28
e 42 29
e 42 30
e 42 31
e 42 32
e 42 33
e 42 34
e 42 35
e 43 21
e 43 22
e 43 23
e 43 24
e 43 25
e 43 26
e 43 27
e 43 28
e 43 29
e 43 30
e 43 31
e 43 32
e 43 33
e 43 34
e 43 35
e 43 36
e 43 37
e 43 38
e 43 39
e 43 40
e 43 41
e 43 42
e 43 43
e 44 16
e 44 17
e 44 18
e 44 19
e 44 20
e 44 21
e 44 22
e 44 23
e 44 24
e 44 25
e 44 26
e 44 27
e 44 28
e 44 29
e 44 30
e 44 31
e 44 32
e 44 33
e 44 34
e 45 23
e 45 24
e 45 25
e 45 26
e 45 27
e 45 28
e 45 29
e 45 30
e 45 31
e 45 32
e 45 33
e 45 34
e 45 35
e 45 36
e 45 37
e 45 38
e 45 39
e 45 40
e 46 22
e 46 23
e 46 24
e 46 25
e 46 26
e 46 27
e 46 28
e 46 29
e 46 30
e 46 31
e 46 32
e 46 33
e 46 34
e 47 17
e 47 18
e 47 19
e 47 20
e 47 21
e 47 22
e 47 23
e 47 24
e 47 25
e 47 26
e 47 27
e 47 28
e 47 29
e 48 12
e 48 13
e 48 14
e 48 15
e 48 16
e 48 17
e 48 18
e 48 19
e 48 20
e 48 21
e 48 22
e 48 23
e 49 18
e 49 19
e 49 20
e 49 21
e 49 22
e 49 23
e 49 24
e 49 25
e 49 26
e 49 27
e 49 28
e 49 29
e 49 30
e 49 31
e 49 32
e 49 33
e 49 34
e 49 35
e 49 36
e 50 28
e 50 29
e 50 30
e 50 31
e 50 32
e 50 33
e 50 34
e 50 35
e 50 36
e 50 37
e 50 38
e 50 39
e 50 40
e 50 41
e 50 42
e 50 43
e 50 44
e 50 45
e 50 46
e 51 23
e 51 24
e 51 25
e 51 26
e 51 27
e 51 28
e 51 29
e 51 30
e 51 31
e 51 32
e 51 33
e 51 34
e 51 35
e 51 36
e 51 37
e 51 38
e 51 39
e 51 40
e 51 41
e 52 21
e 52 22
e 52 23
e 52 24
e 52 25
e 52 26
e 52 27
e 52 28
e 52 29
e 52 30
e 52 31
e 52 32
e 52 33
e 52 34
e 53 22
e 53 23
e 53 24
e 53 25
e 53 26
e 53 27
e 53 28
e 53 29
e 53 30
e 53 31
e 53 32
e 53 33
e 53 34
e 53 35
e 53 36
e 53 37
e 54 17
e 54 18
e 54 19
e 54 20
e 54 21
e 54 22
e 54 23
e 54 24
e 54 25
e 54 26
e 54 27
e 54 28
e 54 29
e 54 30
e 54 31
e 55 28
e 55 29
e 55 30
e 55 31
e 55 32
e 55 33
e 55 34
e 55 35
e 55 36
e 55 37
e 55 38
e 55 39
e 55 40
e 55 41
e 55 42
e 55 43
e 55 44
e 55 45
e 55 46
e 55 47
e 56 21
e 56 22
e 56 23
e 56 24
e 56 25
e 56 26
e 56 27
e 56 28
e 56 29
e 56 30
e 56 31
e 57 23
e 57 24
e 57 25
e 57 26
e 57 27
e 57 28
e 57 29
e 57 30
e 57 31
e 57 32
e 57 33
e 57 34
e 57 35
e 57 36
e 57 37
e 57 38
e 57 39
e 58 28
e 58 29
e 58 30
e 58 31
e 58 32
e 58 33
e 58 34
e 58 35
e 58 36
e 58 37
e 58 38
e 58 39
e 59 26
e 59 27
e 59 28
e 59 29
e 59 30
e 59 31
e 59 32
e 59 33
e 59 34
e 59 35
e 59 36
e 59 37
e 60 25
e 60 26
e 60 27
e 60 28
e 60 29
e 60 30
e 60 31
e 60 32
e 60 33
e 60 34
e 60 35
e 60 36
e 61 23
e 61 24
e 61 25
e 61 26
e 61 27
e 61 28
e 61 29
e 61 30
e 61 31
e 61 32
e 61 33
e 62 36
e 62 37
e 62 38
e 62 39
e 62 40
e 62 41
e 62 42
e 62 43
e 62 44
e 62 45
e 62 46
e 62 47
e 62 48
e 62 49
e 63 32
e 63 33
e 63 34
e 63 35
e 63 36
e 63 37
e 63 38
e 63 39
e 63 40
e 63 41
e 63 42
e 63 43
e 63 44
e 63 45
e 64 34
e 64 35
e 64 36
e 64 37
e 64 38
e 64 39
e 64 40
e 64 41
e 64 42
e 64 43
e 64 44
e 65 16
e 65 17
e 65 18
e 65 19
e 65 20
e 65 21
e 65 22
e 65 23
e 65 24
e 65 25
e 65 26
e 65 27
e 65 28
e 65 29
e 66 26
e 66 27
e 66 28
e 66 29
e 66 30
e 66 31
e 66 32
e 66 33
e 66 34
e 66 35
e 66 36
e 66 37
e 67 36
e 67 37
e 67 38
e 67 39
e 67 40
e 67 41
e 67 42
e 67 43
e 67 44
e 67 45
e 67 46
e 68 26
e 68 27
e 68 28
e 68 29
e 68 30
e 69 31
e 69 32
e 69 33
e 69 34
e 69 35
e 69 36
e 69 37
e 69 38
e 69 39
e 69 40
e 70 34
e 70 35
e 70 36
e 70 37
e 70 38
e 71 35
e 71 36
e 71 37
e 71 38
e 71 39
e 71 40
e 71 41
e 71 42
e 71 43
e 71 44
e 72 25
e 72 26
e 72 27
e 72 28
e 72 29
e 72 30
e 73 20
e 73 21
e 73 22
e 73 23
e 74 39
e 74 40
e 74 41
e 74 42
e 74 43
e 74 44
e 74 45
e 74 46
e 74 47
e 74 48
e 74 49
e 75 22
e 75 23
e 75 24
e 76 23
e 76 24
e 76 25
e 76 26
e 76 27
e 76 28
e 76 29
e 76 30
e 76 31
e 77 36
e 77 37
e 77 38
e 77 39
e 78 31
e 78 32
e 78 33
e 79 24
e 79 25
e 79 26
e 79 27
e 80 27
e 80 28
e 80 29
e 80 30
e 80 31
e 81 35
e 81 36
e 81 37
e 82 32
e 82 33
e 82 34
e 82 35
e 83 34
e 83 35
e 84 23
e 84 24
e 84 25
e 85 32
e 85 33
e 86 39
e 87 38
e 87 39
e 88 38
e 88 39
e 89 35
e 90 30
n 1 y1
n 2 y6
n 3 y8
n 4 y23
n 5 y31
n 6 y40
n 7 y46
n 8 y54
n 9 y55
n 10 y57
n 11 y60
n 12 y64
n 13 y65
n 14 y67
n 15 y69
n 16 y74
n 17 y78
n 18 y82
n 19 y83
n 20 y90
n 21 y91
n 22 y95
n 23 y99
n 24 y104
n 25 y112
n 26 y136
n 27 y141
n 28 y142
n 29 y146
n 30 y148
n 31 y154
n 32 y163
n 33 y166
n 34 y168
n 35 y179
n 36 y182
n 37 y186
n 38 y188
n 39 y192
n 40 y196
n 41 y199
n 42 y204
n 43 y205
n 44 y210
n 45 y212
n 46 y235
n 47 y244
n 48 y256
n 49 y260
n 50 y262
n 51 y263
n 52 y269
n 53 y274
n 54 y280
n 55 y281
n 56 y286
n 57 y287
n 58 y293
n 59 y297
n 60 y317
n 61 y320
n 62 y321
n 63 y324
n 64 y325
n 65 y327
n 66 y329
n 67 y337
n 68 y344
n 69 y367
n 70 y373
n 71 y378
n 72 y385
n 73 y386
n 74 y402
n 75 y411
n 76 y412
n 77 y419
n 78 y420
n 79 y440
n 80 y442
n 81 y449
n 82 y457
n 83 y462
n 84 y463
n 85 y473
n 86 y474
n 87 y482
n 88 y484
n 89 y488
n 90 y493
n 91 y496
